% seed = 0

mint = 38;
% maxt = 143;

nActs = 62;
dur = [0,2,1,3,3,4,2,2,3,2,3,4,5,2,2,1,1,3,1,1,3,1,2,3,2,2,1,2,3,3,4,3,2,2,3,2,2,1,5,1,1,2,3,2,3,3,4,1,2,3,1,3,1,4,1,2,2,3,2,4,4,0];

nSkills = 15;
sreq = [| 0,0,0,0,0,0,0,0,0,0,0,0,0,0,0,
	| 0,1,1,0,0,0,0,1,0,0,0,0,0,0,0,
	| 0,0,0,0,0,0,0,0,0,0,0,0,0,1,0,
	| 0,1,0,0,0,0,0,1,1,0,0,0,0,1,0,
	| 0,0,2,0,0,0,1,0,0,0,0,0,0,0,0,
	| 0,0,1,0,0,0,1,0,0,0,0,0,0,0,0,
	| 0,0,0,0,0,0,0,1,1,0,0,0,1,1,0,
	| 0,0,0,0,0,1,0,0,0,0,0,0,0,0,0,
	| 0,0,0,1,0,0,0,0,0,0,0,0,0,0,0,
	| 0,0,2,0,0,0,0,0,0,0,0,0,0,0,0,
	| 0,2,0,0,0,0,0,0,0,0,0,0,0,1,0,
	| 0,0,0,0,0,0,1,0,0,0,0,0,0,0,0,
	| 0,0,1,0,0,0,0,0,0,1,0,0,0,0,0,
	| 0,0,1,0,0,1,0,0,0,0,0,0,0,0,0,
	| 1,0,0,0,0,0,0,0,1,0,0,0,1,1,0,
	| 0,0,0,0,0,1,0,0,0,0,0,0,0,1,0,
	| 0,0,2,0,0,0,0,0,1,0,0,0,1,0,0,
	| 0,0,1,0,0,0,0,0,0,0,0,0,0,0,0,
	| 0,0,0,0,0,0,0,1,0,0,0,0,0,0,0,
	| 0,0,1,0,0,0,0,1,2,0,0,0,0,0,0,
	| 0,0,1,0,0,0,0,0,0,0,1,0,0,1,0,
	| 0,1,0,0,0,0,1,0,2,0,0,0,0,0,0,
	| 0,0,1,0,0,0,0,2,0,0,0,0,0,1,0,
	| 0,0,0,0,0,0,0,1,1,0,0,0,0,0,0,
	| 0,0,0,0,0,0,1,0,0,0,0,1,0,0,0,
	| 0,1,0,0,0,0,2,1,0,0,0,0,0,0,0,
	| 0,0,0,0,0,0,0,2,0,0,0,0,0,1,0,
	| 0,0,0,0,0,0,0,1,1,0,0,0,0,0,0,
	| 0,0,0,0,0,0,0,2,1,0,0,0,0,0,0,
	| 0,0,1,0,0,0,0,1,0,0,1,0,0,0,0,
	| 0,0,1,0,0,0,0,1,1,0,0,0,0,0,0,
	| 0,0,1,0,0,0,0,0,0,0,0,0,0,0,0,
	| 0,0,1,0,0,0,0,1,0,0,0,0,0,0,1,
	| 0,0,2,0,0,0,0,0,0,0,0,0,0,0,0,
	| 0,0,2,0,0,0,1,0,1,0,0,0,0,0,0,
	| 0,1,0,0,0,0,0,1,0,0,0,0,0,0,0,
	| 0,1,0,0,0,0,0,0,0,0,0,1,0,0,0,
	| 0,1,0,0,0,0,0,0,1,0,0,0,1,0,0,
	| 0,0,0,0,0,0,0,1,0,0,0,0,0,0,0,
	| 0,0,0,0,0,0,0,1,0,0,0,0,0,0,0,
	| 0,0,0,0,0,0,0,0,2,0,0,0,1,0,0,
	| 1,0,1,0,0,0,0,0,1,0,0,0,1,0,0,
	| 0,0,0,0,0,1,0,0,0,0,0,0,0,0,0,
	| 0,0,0,0,0,0,1,0,0,0,0,0,0,0,0,
	| 0,1,0,1,0,0,0,1,0,0,0,0,0,0,0,
	| 0,0,1,0,0,0,0,0,1,0,0,2,0,0,0,
	| 0,0,1,0,0,0,0,0,0,0,1,0,1,0,0,
	| 0,0,0,0,0,0,1,0,1,0,0,0,0,0,0,
	| 0,1,1,0,0,0,0,0,1,0,0,0,0,0,0,
	| 0,1,1,0,0,0,0,0,0,0,0,1,0,0,0,
	| 0,0,0,0,1,0,0,3,0,0,0,0,0,0,0,
	| 0,0,2,0,0,0,1,0,1,0,0,0,0,0,0,
	| 0,0,1,0,0,0,0,2,0,0,0,0,0,1,0,
	| 0,0,0,0,0,0,0,0,0,0,0,0,0,1,0,
	| 1,0,0,1,0,0,0,0,0,0,0,0,0,0,0,
	| 0,0,0,0,0,0,0,0,1,0,0,0,0,0,0,
	| 0,0,0,1,0,0,0,0,1,0,0,0,0,0,0,
	| 0,1,1,0,0,0,0,1,0,0,0,0,0,0,0,
	| 1,1,0,0,0,0,0,0,1,0,0,0,0,0,0,
	| 0,1,0,0,0,0,0,0,1,0,0,0,0,0,0,
	| 0,0,1,0,0,0,0,0,0,0,0,0,0,0,0,
	| 0,0,0,0,0,0,0,0,0,0,0,0,0,0,0, |];

% SumOfsreq = 151;

nResources = 13;
mastery = [| false,false,false,false,false,false,true,true,true,false,false,false,false,false,false,
	| false,true,true,false,false,false,false,false,false,false,false,false,true,true,true,
	| false,false,true,false,false,false,true,true,true,false,false,false,false,false,false,
	| false,false,false,true,true,true,false,false,false,false,false,false,true,true,true,
	| false,false,true,false,false,false,false,false,false,false,false,false,false,false,false,
	| true,true,true,false,false,false,false,false,false,false,false,false,false,false,false,
	| false,false,false,false,false,false,false,true,true,false,false,false,false,false,false,
	| false,true,true,false,false,false,false,false,false,false,false,false,false,false,false,
	| false,true,true,false,false,false,false,false,false,true,true,true,false,false,false,
	| false,false,false,false,false,false,true,true,true,false,false,false,false,false,false,
	| false,false,false,false,false,false,false,true,true,false,false,false,false,false,false,
	| false,false,false,false,false,true,false,false,false,false,false,true,true,true,true,
	| false,false,false,false,false,false,false,false,false,false,false,false,false,false,true, |];

nPrecs = 93;
pred = [1,1,1,2,2,3,3,3,4,4,5,5,5,6,6,6,7,8,8,8,9,10,10,11,11,12,12,13,13,14,14,14,15,16,17,18,18,19,19,19,20,21,21,22,22,23,24,24,24,25,26,26,26,27,28,28,29,30,31,32,33,34,35,35,36,36,37,38,39,40,41,42,43,44,45,45,46,47,48,49,50,51,51,52,53,54,55,56,57,58,59,60,61];
succ = [2,3,4,5,6,42,14,15,31,7,9,10,8,11,37,24,14,33,12,23,38,19,43,49,50,13,22,18,36,17,21,16,41,51,54,30,47,26,20,29,39,51,55,34,61,28,25,27,36,55,35,60,53,31,34,29,45,32,43,45,56,46,44,40,38,39,47,57,41,46,52,54,47,52,51,48,56,59,54,57,58,52,53,57,58,56,58,59,61,59,62,62,62];

nUnrels = 1251;
unpred = [2,2,2,2,2,2,2,2,2,3,3,3,3,3,3,3,3,3,3,3,3,3,3,3,3,3,3,3,3,3,3,3,3,3,3,3,3,3,3,3,3,3,3,3,3,3,3,3,3,3,4,4,4,4,4,4,4,4,4,4,4,4,4,4,4,4,4,4,4,4,4,4,4,4,4,4,4,4,4,4,4,4,4,4,4,4,4,4,4,5,5,5,5,5,5,5,5,5,5,5,5,5,5,5,5,5,6,6,6,6,6,6,6,6,6,6,6,6,6,6,6,6,6,6,6,6,6,6,6,6,6,6,6,6,6,6,6,6,6,6,6,7,7,7,7,7,7,7,7,7,7,7,7,7,7,7,7,7,7,7,7,7,7,7,7,7,7,7,7,7,7,7,7,7,7,7,7,7,7,7,7,8,8,8,8,8,8,8,8,8,8,8,8,8,8,8,8,8,8,8,8,8,8,8,8,8,9,9,9,9,9,9,9,9,9,9,9,9,9,9,9,9,9,9,9,9,9,9,9,9,9,9,9,9,9,9,9,9,9,9,9,9,9,9,9,9,9,9,9,9,9,9,9,9,9,10,10,10,10,10,10,10,10,10,10,10,10,10,10,10,10,10,10,10,10,10,10,10,10,10,10,10,11,11,11,11,11,11,11,11,11,11,11,11,11,11,11,11,11,11,11,11,11,11,11,11,11,11,11,11,11,11,11,11,11,11,11,11,11,11,11,11,11,11,11,11,12,12,12,12,12,12,12,12,12,12,12,12,12,12,12,12,12,12,12,12,12,12,12,12,12,12,13,13,13,13,13,13,13,13,13,13,13,13,13,13,13,13,13,13,13,13,13,13,13,13,13,13,13,13,13,14,14,14,14,14,14,14,14,14,14,14,14,14,14,14,14,14,14,14,14,14,14,14,14,14,14,14,14,14,14,14,14,14,14,15,15,15,15,15,15,15,15,15,15,15,15,15,15,15,15,15,15,15,15,15,15,15,15,15,15,15,15,15,15,15,15,15,15,15,15,15,15,15,15,15,15,16,16,16,16,16,16,16,16,16,16,16,16,16,16,16,16,16,16,16,16,16,16,16,16,16,16,16,16,16,16,16,16,16,16,16,16,16,16,17,17,17,17,17,17,17,17,17,17,17,17,17,17,17,17,17,17,17,17,17,17,17,17,17,17,17,17,17,17,17,17,17,17,17,17,17,17,17,17,17,18,18,18,18,18,18,18,18,18,18,18,18,18,18,18,18,18,18,18,18,18,18,18,18,18,18,18,18,18,19,19,19,19,19,19,19,19,19,19,19,19,19,19,19,19,19,19,19,19,19,20,20,20,20,20,20,20,20,20,20,20,20,20,20,20,20,20,20,20,20,20,20,20,20,20,20,20,20,20,20,20,20,20,20,20,20,21,21,21,21,21,21,21,21,21,21,21,21,21,21,21,21,21,21,21,21,21,21,21,21,21,21,21,21,21,21,21,21,22,22,22,22,22,22,22,22,22,22,22,22,22,22,22,22,22,22,22,22,22,22,22,22,22,22,22,22,22,22,22,22,22,22,23,23,23,23,23,23,23,23,23,23,23,23,23,23,23,23,23,23,23,23,23,23,23,24,24,24,24,24,24,24,24,24,24,24,24,24,24,24,24,24,24,24,24,24,24,25,25,25,25,25,25,25,25,25,25,25,25,25,25,25,25,25,25,25,25,25,25,25,25,25,25,25,25,25,25,25,25,25,26,26,26,26,26,26,26,26,26,26,26,26,26,26,26,26,26,26,26,26,26,26,26,27,27,27,27,27,27,27,27,27,27,27,27,27,27,27,27,27,27,27,27,27,27,27,27,27,27,27,27,27,27,28,28,28,28,28,28,28,28,28,28,28,28,28,28,28,28,28,28,28,29,29,29,29,29,29,29,29,29,29,29,29,29,29,29,29,29,29,29,29,29,30,30,30,30,30,30,30,30,30,30,30,30,30,30,30,30,30,30,30,31,31,31,31,31,31,31,31,31,31,31,31,31,31,31,31,31,31,31,31,31,31,31,31,31,31,31,32,32,32,32,32,32,32,32,32,32,32,32,32,32,32,32,32,32,33,33,33,33,33,33,33,33,33,33,33,33,33,33,33,33,33,33,33,33,33,33,33,33,33,33,34,34,34,34,34,34,34,34,34,34,34,34,34,34,34,34,34,34,34,34,34,34,34,34,35,35,35,35,35,35,35,35,35,35,35,35,35,35,35,35,35,35,36,36,36,36,36,36,36,36,36,36,36,36,36,36,36,36,36,36,36,37,37,37,37,37,37,37,37,37,37,37,37,37,37,37,37,37,37,37,37,37,37,38,38,38,38,38,38,38,38,38,38,38,38,38,38,38,38,38,38,38,38,38,39,39,39,39,39,39,39,39,39,39,39,39,39,39,39,39,39,39,40,40,40,40,40,40,40,40,40,40,40,40,40,40,40,40,40,40,41,41,41,41,41,41,41,41,41,41,41,41,41,41,41,41,41,42,42,42,42,42,42,42,42,42,42,42,42,42,42,42,42,43,43,43,43,43,43,43,43,43,43,43,43,43,43,43,43,44,44,44,44,44,44,44,44,44,44,44,44,44,44,45,45,45,45,45,45,46,46,46,46,46,46,46,46,46,46,46,46,46,47,47,47,47,47,47,47,47,47,47,47,47,47,48,48,48,48,48,48,48,48,48,48,49,49,49,49,49,49,49,49,49,49,50,50,50,50,50,50,50,50,50,51,51,51,51,52,52,52,52,52,52,52,53,53,53,53,53,53,54,54,54,54,54,55,55,55,55,56,56,56,56,57,57,57,58,58,59,59,60];
unsucc = [3,4,7,14,15,16,17,21,42,4,5,6,7,8,9,10,11,12,13,18,19,20,22,23,24,25,26,27,28,29,30,31,32,33,34,35,36,37,38,39,40,43,44,45,46,47,48,49,50,60,5,6,8,9,10,11,12,13,15,18,19,20,22,23,24,25,26,27,28,29,30,32,33,34,35,36,37,38,39,40,41,42,44,45,46,48,49,50,60,6,7,11,14,15,16,17,21,24,25,27,31,37,42,49,50,55,7,8,9,10,12,13,14,15,16,17,18,19,20,21,22,23,26,28,29,30,32,33,34,35,40,42,44,45,46,48,51,53,54,56,60,8,9,10,11,12,13,15,18,19,20,22,23,24,25,26,27,28,29,30,31,32,33,34,35,36,37,38,39,40,41,42,43,44,45,46,47,48,49,50,60,9,10,11,14,15,16,17,19,20,21,24,25,26,27,31,35,37,40,42,43,44,49,50,55,60,10,11,12,13,14,15,16,17,18,19,20,21,22,23,24,25,26,27,28,29,30,31,32,33,34,35,36,37,39,40,41,42,43,44,45,46,47,48,49,50,51,52,53,54,55,56,58,59,60,11,12,13,14,15,16,17,18,21,22,23,24,25,27,28,30,31,32,33,34,36,37,38,42,49,50,55,12,13,14,15,16,17,18,19,20,21,22,23,24,25,26,27,28,29,30,31,32,33,34,35,36,37,38,39,40,41,42,43,44,45,46,47,48,51,52,53,54,55,56,60,14,15,16,17,19,20,21,23,24,25,26,27,28,29,31,33,35,37,40,42,43,44,49,50,55,60,14,15,16,17,19,20,21,22,23,24,25,26,27,28,29,31,33,34,35,37,40,42,43,44,46,49,50,55,60,15,18,19,20,22,23,24,25,26,27,28,29,30,31,32,33,34,35,36,37,38,39,40,41,42,43,44,45,46,47,48,49,50,60,16,17,18,19,20,21,22,23,24,25,26,27,28,29,30,31,32,33,34,35,36,37,38,39,40,42,43,44,45,46,47,48,49,50,51,53,54,55,56,58,59,60,17,18,19,20,21,22,23,24,25,26,27,28,29,30,31,32,33,34,35,36,37,38,39,40,41,42,43,44,45,46,47,48,49,50,54,55,56,60,18,19,20,21,22,23,24,25,26,27,28,29,30,31,32,33,34,35,36,37,38,39,40,41,42,43,44,45,46,47,48,49,50,51,52,53,55,57,58,60,61,19,20,21,22,23,24,25,26,27,28,29,31,33,34,35,36,37,38,39,40,41,42,43,44,46,49,50,55,60,21,22,23,24,25,27,28,30,31,32,33,34,36,37,38,42,43,47,49,50,55,21,22,23,24,25,26,27,28,29,30,31,32,33,34,35,36,37,38,40,42,43,44,45,46,47,48,49,50,51,53,54,55,56,58,59,60,22,23,24,25,26,27,28,29,30,31,32,33,34,35,36,37,38,39,40,41,42,43,44,45,46,47,48,49,50,54,56,60,23,24,25,26,27,28,29,30,31,32,33,35,36,37,38,39,40,41,42,43,44,45,47,48,49,50,51,52,53,54,55,57,58,60,24,25,26,27,30,31,32,33,35,36,37,38,39,40,41,42,43,44,47,49,50,55,60,26,28,29,30,32,33,34,35,37,40,42,44,45,46,48,49,50,51,53,54,56,60,26,27,28,29,30,31,32,33,34,35,36,37,38,39,40,41,42,43,44,45,46,47,48,49,50,51,52,53,54,56,57,60,61,27,28,29,30,31,32,33,34,36,37,38,39,41,42,43,45,47,48,49,50,51,54,55,28,29,30,32,33,34,35,36,37,38,39,40,41,42,44,45,46,48,49,50,51,52,53,54,55,56,57,58,60,61,30,31,32,33,35,36,37,38,39,40,41,42,43,44,47,49,50,55,60,30,31,32,33,34,35,36,37,38,39,40,41,42,43,44,46,47,49,50,55,60,31,33,34,35,36,37,38,39,40,41,42,43,44,46,47,49,50,55,60,32,33,34,35,36,37,38,39,40,41,42,44,45,46,48,49,50,51,52,53,54,55,56,57,58,60,61,33,34,35,36,37,38,39,40,41,42,43,44,46,47,49,50,55,60,34,35,36,37,38,39,40,41,42,43,44,45,46,47,48,49,50,51,52,53,54,55,57,58,60,61,35,36,37,38,39,40,41,42,43,44,45,47,48,49,50,51,52,53,54,55,57,58,60,61,36,37,38,39,41,42,43,45,47,48,49,50,51,53,54,55,58,60,37,40,42,43,44,45,46,47,48,49,50,51,53,54,55,56,58,59,60,38,39,40,41,42,43,44,45,46,48,49,50,51,52,53,54,55,56,57,58,60,61,39,40,41,42,43,44,45,46,47,48,49,50,51,52,53,54,55,56,58,59,60,40,42,43,44,45,46,47,48,49,50,51,53,54,55,56,58,59,60,41,42,43,44,45,47,48,49,50,51,52,53,54,55,57,58,60,61,42,43,44,45,46,47,48,49,50,51,53,54,55,56,58,59,60,43,44,45,46,47,48,49,50,51,52,53,55,57,58,60,61,44,45,46,48,49,50,51,52,53,54,55,56,57,58,60,61,45,46,47,48,49,50,51,53,54,55,56,58,59,60,46,47,49,50,55,60,47,48,49,50,51,52,53,54,55,57,58,60,61,48,49,50,51,52,53,54,55,56,57,58,60,61,49,50,51,52,53,55,57,58,60,61,50,51,52,53,54,55,56,58,59,60,51,52,53,54,55,56,57,60,61,54,55,56,60,53,54,55,56,58,59,60,54,55,56,57,60,61,55,57,58,60,61,56,57,60,61,57,58,60,61,58,59,60,60,61,60,61,61];

USEFUL_RES = [{},
	{1,2,3,5,6,7,8,9,10,11},
	{2,4,12},
	{1,2,3,4,6,7,8,9,10,11,12},
	{1,2,3,5,6,8,9,10},
	{1,2,3,5,6,8,9,10},
	{1,2,3,4,7,10,11,12},
	{4,12},
	{4},
	{2,3,5,6,8,9},
	{2,4,6,8,9,12},
	{1,3,10},
	{2,3,5,6,8,9},
	{2,3,4,5,6,8,9,12},
	{1,2,3,4,6,7,10,11,12},
	{2,4,12},
	{1,2,3,4,5,6,7,8,9,10,11,12},
	{2,3,5,6,8,9},
	{1,3,7,10,11},
	{1,2,3,5,6,7,8,9,10,11},
	{2,3,4,5,6,8,9,12},
	{1,2,3,6,7,8,9,10,11},
	{1,2,3,4,5,6,7,8,9,10,11,12},
	{1,3,7,10,11},
	{1,3,9,10,12},
	{1,2,3,6,7,8,9,10,11},
	{1,2,3,4,7,10,11,12},
	{1,3,7,10,11},
	{1,3,7,10,11},
	{1,2,3,5,6,7,8,9,10,11},
	{1,2,3,5,6,7,8,9,10,11},
	{2,3,5,6,8,9},
	{1,2,3,4,5,6,7,8,9,10,11,12,13},
	{2,3,5,6,8,9},
	{1,2,3,5,6,7,8,9,10,11},
	{1,2,3,6,7,8,9,10,11},
	{2,6,8,9,12},
	{1,2,3,4,6,7,8,9,10,11,12},
	{1,3,7,10,11},
	{1,3,7,10,11},
	{1,2,3,4,7,10,11,12},
	{1,2,3,4,5,6,7,8,9,10,11,12},
	{4,12},
	{1,3,10},
	{1,2,3,4,6,7,8,9,10,11},
	{1,2,3,5,6,7,8,9,10,11,12},
	{2,3,4,5,6,8,9,12},
	{1,3,7,10,11},
	{1,2,3,5,6,7,8,9,10,11},
	{2,3,5,6,8,9,12},
	{1,3,4,7,10,11},
	{1,2,3,5,6,7,8,9,10,11},
	{1,2,3,4,5,6,7,8,9,10,11,12},
	{2,4,12},
	{4,6},
	{1,3,7,10,11},
	{1,3,4,7,10,11},
	{1,2,3,5,6,7,8,9,10,11},
	{1,2,3,6,7,8,9,10,11},
	{1,2,3,6,7,8,9,10,11},
	{2,3,5,6,8,9},
	{}];

POTENTIAL_ACT = [{2,4,5,6,7,12,15,17,19,20,22,23,24,25,26,27,28,29,30,31,33,35,36,38,39,40,41,42,44,45,46,48,49,51,52,53,56,57,58,59,60},
	{2,3,4,5,6,7,10,11,13,14,15,16,17,18,20,21,22,23,26,27,30,31,32,33,34,35,36,37,38,41,42,45,46,47,49,50,52,53,54,58,59,60,61},
	{2,4,5,6,7,10,12,13,14,15,17,18,19,20,21,22,23,24,25,26,27,28,29,30,31,32,33,34,35,36,38,39,40,41,42,44,45,46,47,48,49,50,51,52,53,56,57,58,59,60,61},
	{3,4,7,8,9,11,14,15,16,17,21,23,27,33,38,41,42,43,45,47,51,53,54,55,57},
	{2,5,6,10,13,14,17,18,20,21,23,30,31,32,33,34,35,42,46,47,49,50,52,53,58,61},
	{2,4,5,6,10,11,13,14,15,17,18,20,21,22,23,26,30,31,32,33,34,35,36,37,38,42,45,46,47,49,50,52,53,55,58,59,60,61},
	{2,4,7,15,17,19,20,22,23,24,26,27,28,29,30,31,33,35,36,38,39,40,41,42,45,46,48,49,51,52,53,56,57,58,59,60},
	{2,4,5,6,10,11,13,14,17,18,20,21,22,23,26,30,31,32,33,34,35,36,37,38,42,45,46,47,49,50,52,53,58,59,60,61},
	{2,4,5,6,10,11,13,14,17,18,20,21,22,23,25,26,30,31,32,33,34,35,36,37,38,42,45,46,47,49,50,52,53,58,59,60,61},
	{2,4,5,6,7,12,15,17,19,20,22,23,24,25,26,27,28,29,30,31,33,35,36,38,39,40,41,42,44,45,46,48,49,51,52,53,56,57,58,59,60},
	{2,4,7,15,17,19,20,22,23,24,26,27,28,29,30,31,33,35,36,38,39,40,41,42,45,46,48,49,51,52,53,56,57,58,59,60},
	{3,4,7,8,11,14,15,16,17,21,23,25,27,33,37,38,41,42,43,46,47,50,53,54},
	{33}];
